webassembly/ejemplos_results/folder7_json_36.txt
value = 7;
fgas = [1, 1, 1, 1, 1, 2, 1];
fsize = [1, 1, 1, 1, 1, 1, 1];
states = 
[|   in_0,   in_1, in_2, '.', '.', '.', '.', '.'
 |   in_1,   in_2,  '.', '.', '.', '.', '.', '.'
 |   in_2,    '.',  '.', '.', '.', '.', '.', '.'
 | 's(0)',   in_0,  '.', '.', '.', '.', '.', '.'
 | 's(1)',   in_0,  '.', '.', '.', '.', '.', '.'
 | 's(2)', 's(2)',  '.', '.', '.', '.', '.', '.'
 | 's(2)',    '.',  '.', '.', '.', '.', '.', '.'
 | 's(3)',    '.',  '.', '.', '.', '.', '.', '.'
 |];
register_states = 
[| local_1, '.', '.', '.', '.'
 |    in_0, '.', '.', '.', '.'
 |    in_0, '.', '.', '.', '.'
 |    in_0, '.', '.', '.', '.'
 |    in_0, '.', '.', '.', '.'
 |    in_0, '.', '.', '.', '.'
 |    in_0, '.', '.', '.', '.'
 |    in_0, '.', '.', '.', '.'
 |];
program = [S(SET1), O('call[function_index(0)]_1'), O('i32.load16_u_2'), O('i32.add_0'), O('i32.load16_s_5'), POP, O('i32.load8_u_6')];
% time elapsed: 0.09 s
----------
value = 6;
fgas = [1, 1, 1, 1, 1, 1, 0];
fsize = [1, 1, 1, 1, 1, 1, 1];
states = 
[|   in_0,   in_1, in_2, '.', '.', '.', '.', '.'
 |   in_1,   in_2,  '.', '.', '.', '.', '.', '.'
 |   in_2,    '.',  '.', '.', '.', '.', '.', '.'
 | 's(0)',   in_0,  '.', '.', '.', '.', '.', '.'
 | 's(1)',   in_0,  '.', '.', '.', '.', '.', '.'
 | 's(2)', 's(3)',  '.', '.', '.', '.', '.', '.'
 | 's(3)',    '.',  '.', '.', '.', '.', '.', '.'
 | 's(3)',    '.',  '.', '.', '.', '.', '.', '.'
 |];
register_states = 
[| local_1, '.', '.', '.', '.'
 |    in_0, '.', '.', '.', '.'
 |    in_0, '.', '.', '.', '.'
 |    in_0, '.', '.', '.', '.'
 |    in_0, '.', '.', '.', '.'
 |    in_0, '.', '.', '.', '.'
 |    in_0, '.', '.', '.', '.'
 |    in_0, '.', '.', '.', '.'
 |];
program = [S(SET1), O('call[function_index(0)]_1'), O('i32.load16_u_2'), O('i32.add_0'), O('i32.load16_s_5'), O('i32.load8_u_6'), NOP];
% time elapsed: 0.09 s
----------
==========
% time elapsed: 0.09 s
% [value > 5]
